25
20833 17100
20900 17066
21300 13016
21600 14150
21600 14966
21600 16500
22183 13133
22583 14300
22683 12716
23616 15866
23700 15933
23883 14533
24166 13250
25149 12365
26133 14500
26150 10550
26283 12766
26433 13433
26550 13850
26733 11683
27026 13051
27096 13415
27153 13203
27166 9833
27233 10450
